100 90 10
0 1 0
1 2 0
2 3 0
3 4 0
4 5 0
5 6 0
6 7 0
7 8 0
8 9 0
10 11 1
11 12 1
12 13 1
13 14 1
14 15 1
15 16 1
16 17 1
17 18 1
18 19 1
20 21 2
21 22 2
22 23 2
23 24 2
24 25 2
25 26 2
26 27 2
27 28 2
28 29 2
30 31 3
31 32 3
32 33 3
33 34 3
34 35 3
35 36 3
36 37 3
37 38 3
38 39 3
40 41 4
41 42 4
42 43 4
43 44 4
44 45 4
45 46 4
46 47 4
47 48 4
48 49 4
50 51 5
51 52 5
52 53 5
53 54 5
54 55 5
55 56 5
56 57 5
57 58 5
58 59 5
60 61 6
61 62 6
62 63 6
63 64 6
64 65 6
65 66 6
66 67 6
67 68 6
68 69 6
70 71 7
71 72 7
72 73 7
73 74 7
74 75 7
75 76 7
76 77 7
77 78 7
78 79 7
80 81 8
81 82 8
82 83 8
83 84 8
84 85 8
85 86 8
86 87 8
87 88 8
88 89 8
90 91 9
91 92 9
92 93 9
93 94 9
94 95 9
95 96 9
96 97 9
97 98 9
98 99 9
1 9 11
1 8 93
1 0 48
1 7 76
1 6 13
1 5 71
1 3 59
1 2 90
1 4 10
1 1 65
1 8 52
1 9 76
1 0 84
1 7 73
1 5 56
1 4 10
1 6 26
1 2 43
1 3 39
1 1 49
1 9 28
1 8 44
1 7 26
1 6 66
1 4 68
1 5 74
1 3 27
1 2 14
1 1 6
1 0 21
1 0 18
1 1 58
1 3 62
1 2 46
1 6 25
1 4 6
1 5 60
1 7 28
1 8 80
1 9 30
1 0 78
1 1 47
1 7 29
1 5 16
1 4 29
1 6 57
1 3 78
1 2 87
1 8 39
1 9 73
1 9 66
1 8 51
1 3 12
1 7 64
1 5 67
1 4 15
1 6 66
1 2 26
1 1 20
1 0 98
1 8 23
1 9 76
1 6 45
1 7 75
1 5 24
1 3 18
1 4 83
1 2 15
1 1 88
1 0 17
1 9 56
1 8 83
1 7 80
1 6 16
1 4 31
1 5 93
1 3 30
1 2 29
1 1 66
1 0 28
1 9 79
1 8 69
1 2 82
1 4 16
1 5 62
1 3 41
1 6 91
1 7 35
1 0 34
1 1 75
1 0 5
1 1 19
1 2 20
1 3 12
1 4 94
1 5 60
1 6 99
1 7 31
1 8 96
1 9 63